param n := 32;
param c := 100;
param w := 
1 99
2 98
3 98
4 97
5 93
6 92
7 87
8 75
9 74
10 68
11 63
12 60
13 58
14 57
15 51
16 50
17 46
18 42
19 42
20 38
21 34
22 33
23 33
24 23
25 23
26 21
27 20
28 16
29 11
30 6
31 4
32 3
;